Route #1: 69 16 55 76
Route #2: 93 75
Route #3: 32 33 53 73 95 24
Route #4: 74 13 4
Route #5: 35 46 31
Route #6: 14 49 6 37 87
Route #7: 20 41 22 15
Route #8: 40 67 88 44
Route #9: 3 77 63
Route #10: 1 70 54
Route #11: 57 72 36 29 43 45 2 7
Route #12: 23 61 100
Route #13: 89 98 99 62 71
Route #14: 17 8
Route #15: 80 94 56 21
Route #16: 66 84 90 68
Route #17: 59 60 82
Route #18: 52 91 50
Route #19: 28 42 78 65 25
Route #20: 19 97 27
Route #21: 92 9 86
Route #22: 79 11 85 30
Route #23: 34 64 96 48 26 47 38
Route #24: 39 10 18
Route #25: 81 51 83
Route #26: 58 12 5
Cost 27591.0000
Time 16.0002